p cnf 19 11
e 1 0
a 2 3 4 5 0
e 6 0
a 7 0
e 8 9 0
a 10 0
e 11 12 0
a 13 0
e 14 0
a 15 16 17 0
e 18 19 0
-4 -19 16 -1 -10 0
-9 5 -17 3 0
19 -18 -2 9 0
18 -15 -9 0
-16 -14 -19 -3 -10 0
-8 3 0
-14 8 7 11 -5 0
19 -2 -6 0
-16 19 18 -15 -14 0
15 -13 -17 -5 -9 0
14 13 8 15 0
